NAME          
ROWS
 N  OBJ
 L  c1
 L  c2
COLUMNS
    MARKER    'MARKER'                 'INTORG'
    x[1]      c1        218
    x[1]      c2        712
    x[1]      OBJ       -803
    x[2]      c1        442
    x[2]      c2        913
    x[2]      OBJ       -759
    x[3]      c1        956
    x[3]      c2        483
    x[3]      OBJ       -965
    x[4]      c1        43
    x[4]      c2        740
    x[4]      OBJ       -762
    x[5]      c1        26
    x[5]      c2        272
    x[5]      OBJ       -248
    x[6]      c1        206
    x[6]      c2        103
    x[6]      OBJ       -351
    x[7]      c1        310
    x[7]      c2        212
    x[7]      OBJ       -274
    x[8]      c1        617
    x[8]      c2        4
    x[8]      OBJ       -940
    x[9]      c1        373
    x[9]      c2        149
    x[9]      OBJ       -256
    x[10]     c1        56
    x[10]     c2        757
    x[10]     OBJ       -472
    x[11]     c1        580
    x[11]     c2        407
    x[11]     OBJ       -199
    x[12]     c1        535
    x[12]     c2        977
    x[12]     OBJ       -618
    x[13]     c1        729
    x[13]     c2        485
    x[13]     OBJ       -77
    x[14]     c1        542
    x[14]     c2        154
    x[14]     OBJ       -557
    x[15]     c1        198
    x[15]     c2        557
    x[15]     OBJ       -629
    x[16]     c1        919
    x[16]     c2        807
    x[16]     OBJ       -27
    x[17]     c1        154
    x[17]     c2        219
    x[17]     OBJ       -508
    x[18]     c1        236
    x[18]     c2        720
    x[18]     OBJ       -13
    x[19]     c1        391
    x[19]     c2        33
    x[19]     OBJ       -389
    x[20]     c1        910
    x[20]     c2        758
    x[20]     OBJ       -262
    x[21]     c1        675
    x[21]     c2        19
    x[21]     OBJ       -939
    x[22]     c1        186
    x[22]     c2        400
    x[22]     OBJ       -636
    x[23]     c1        481
    x[23]     c2        348
    x[23]     OBJ       -221
    x[24]     c1        958
    x[24]     c2        231
    x[24]     OBJ       -164
    x[25]     c1        607
    x[25]     c2        455
    x[25]     OBJ       -888
    x[26]     c1        690
    x[26]     c2        219
    x[26]     OBJ       -667
    x[27]     c1        140
    x[27]     c2        727
    x[27]     OBJ       -490
    x[28]     c1        442
    x[28]     c2        745
    x[28]     OBJ       -799
    x[29]     c1        889
    x[29]     c2        21
    x[29]     OBJ       -649
    x[30]     c1        650
    x[30]     c2        903
    x[30]     OBJ       -191
    x[31]     c1        292
    x[31]     c2        391
    x[31]     OBJ       -539
    x[32]     c1        460
    x[32]     c2        348
    x[32]     OBJ       -934
    x[33]     c1        470
    x[33]     c2        597
    x[33]     OBJ       -615
    x[34]     c1        704
    x[34]     c2        511
    x[34]     OBJ       -362
    x[35]     c1        539
    x[35]     c2        74
    x[35]     OBJ       -900
    x[36]     c1        278
    x[36]     c2        352
    x[36]     OBJ       -452
    x[37]     c1        684
    x[37]     c2        877
    x[37]     OBJ       -3
    x[38]     c1        529
    x[38]     c2        90
    x[38]     OBJ       -181
    x[39]     c1        599
    x[39]     c2        639
    x[39]     OBJ       -507
    x[40]     c1        862
    x[40]     c2        615
    x[40]     OBJ       -99
    x[41]     c1        600
    x[41]     c2        608
    x[41]     OBJ       -490
    x[42]     c1        822
    x[42]     c2        929
    x[42]     OBJ       -393
    x[43]     c1        649
    x[43]     c2        531
    x[43]     OBJ       -560
    x[44]     c1        119
    x[44]     c2        255
    x[44]     OBJ       -1000
    x[45]     c1        761
    x[45]     c2        18
    x[45]     OBJ       -578
RHS
    rhs       c1        11264
    rhs       c2        10182
RANGES
BOUNDS
 BV bounds    x[1]
 BV bounds    x[2]
 BV bounds    x[3]
 BV bounds    x[4]
 BV bounds    x[5]
 BV bounds    x[6]
 BV bounds    x[7]
 BV bounds    x[8]
 BV bounds    x[9]
 BV bounds    x[10]
 BV bounds    x[11]
 BV bounds    x[12]
 BV bounds    x[13]
 BV bounds    x[14]
 BV bounds    x[15]
 BV bounds    x[16]
 BV bounds    x[17]
 BV bounds    x[18]
 BV bounds    x[19]
 BV bounds    x[20]
 BV bounds    x[21]
 BV bounds    x[22]
 BV bounds    x[23]
 BV bounds    x[24]
 BV bounds    x[25]
 BV bounds    x[26]
 BV bounds    x[27]
 BV bounds    x[28]
 BV bounds    x[29]
 BV bounds    x[30]
 BV bounds    x[31]
 BV bounds    x[32]
 BV bounds    x[33]
 BV bounds    x[34]
 BV bounds    x[35]
 BV bounds    x[36]
 BV bounds    x[37]
 BV bounds    x[38]
 BV bounds    x[39]
 BV bounds    x[40]
 BV bounds    x[41]
 BV bounds    x[42]
 BV bounds    x[43]
 BV bounds    x[44]
 BV bounds    x[45]
ENDATA
